qbf_easy_train/easy_947_UNSAT.qdimacs
p cnf 19 42
a 10 2 5 0
e 1 3 4 6 7 8 9 11 12 13 14 15 16 17 18 19 0
-3 -1 0
-3 -2 0
1 2 3 0
-6 4 0
-6 -5 0
-4 5 6 0
-7 3 0
-7 6 0
-3 -6 7 0
-10 8 0
-10 9 0
-8 -9 10 0
7 -10 -11 0
-7 10 -11 0
7 10 11 0
-7 -10 11 0
5 8 -12 0
-5 -8 -12 0
5 -8 12 0
-5 8 12 0
-14 12 0
-14 13 0
-12 -13 14 0
-14 -8 -15 0
14 8 -15 0
-14 8 15 0
14 -8 15 0
-17 -9 0
-17 16 0
9 -16 17 0
-18 -15 0
-18 -17 0
15 17 18 0
11 18 -19 0
-11 -18 -19 0
11 -18 19 0
-11 18 19 0
-17 -16 13 5 -4 0
9 -1 -11 0
-1 19 -10 0
11 15 4 18 -3 -10 0
19 0
