sat_easy_train/easy_947_UNSAT.dimacs
p cnf 118 393
-1 -2 0
1 -2 0
4 -2 0
4 -3 0
2 3 -4 0
7 5 0
7 -6 0
-5 6 -7 0
-8 -3 -9 0
8 3 -9 0
-8 3 9 0
8 -3 9 0
-10 -8 0
-10 9 0
8 -9 10 0
-11 -7 0
-11 -10 0
7 10 11 0
-4 -11 -12 0
4 11 -12 0
-4 11 12 0
4 -11 12 0
15 -13 0
15 14 0
13 -14 -15 0
15 1 -16 0
-15 -1 -16 0
15 -1 16 0
-15 1 16 0
-3 -16 -17 0
3 16 -17 0
-3 16 17 0
3 -16 17 0
-20 18 0
-20 -19 0
-18 19 20 0
21 3 0
21 10 0
-3 -10 -21 0
22 20 0
22 21 0
-20 -21 -22 0
-23 17 0
-23 22 0
-17 -22 23 0
-24 12 0
-24 23 0
-12 -23 24 0
-25 -17 0
-25 -21 0
17 21 25 0
-1 18 -26 0
1 -18 -26 0
-1 -18 26 0
1 18 26 0
27 13 0
27 1 0
-13 -1 -27 0
-27 21 -28 0
27 -21 -28 0
-27 -21 28 0
27 21 28 0
-29 -28 0
-29 3 0
28 -3 29 0
-30 -26 0
-30 -29 0
26 29 30 0
-13 31 0
13 31 0
-33 -31 0
-33 -32 0
31 32 33 0
-14 33 -34 0
14 -33 -34 0
-14 -33 34 0
14 33 34 0
35 27 0
35 19 0
-27 -19 -35 0
-36 -35 0
-36 6 0
35 -6 36 0
8 36 -37 0
-8 -36 -37 0
8 -36 37 0
-8 36 37 0
-40 38 0
-40 -39 0
-38 39 40 0
8 -40 -41 0
-8 40 -41 0
8 40 41 0
-8 -40 41 0
42 -37 0
42 41 0
37 -41 -42 0
-34 -42 -43 0
34 42 -43 0
-34 42 43 0
34 -42 43 0
-30 -43 -44 0
30 43 -44 0
-30 43 44 0
30 -43 44 0
25 -44 -45 0
-25 44 -45 0
25 44 45 0
-25 -44 45 0
-24 -45 -46 0
24 45 -46 0
-24 45 46 0
24 -45 46 0
48 -47 0
48 38 0
47 -38 -48 0
-49 -48 0
-49 -18 0
48 18 49 0
-50 -49 0
-50 6 0
49 -6 50 0
51 50 0
51 -22 0
-50 22 -51 0
52 -47 0
52 51 0
47 -51 -52 0
53 7 0
53 -15 0
-7 15 -53 0
54 53 0
54 -27 0
-53 27 -54 0
-55 -52 0
-55 -54 0
52 54 55 0
48 38 -56 0
-48 -38 -56 0
48 -38 56 0
-48 38 56 0
-39 -56 -57 0
39 56 -57 0
-39 56 57 0
39 -56 57 0
-58 56 0
-58 -21 0
-56 21 58 0
57 58 -59 0
-57 -58 -59 0
57 -58 59 0
-57 58 59 0
60 -14 0
60 33 0
14 -33 -60 0
59 60 -61 0
-59 -60 -61 0
59 -60 61 0
-59 60 61 0
-3 -62 -63 0
3 62 -63 0
-3 62 63 0
3 -62 63 0
64 -61 0
64 63 0
61 -63 -64 0
65 55 0
65 64 0
-55 -64 -65 0
-46 -65 -66 0
46 65 -66 0
-46 65 66 0
46 -65 66 0
-68 41 0
-68 67 0
-41 -67 68 0
-69 -28 0
-69 -5 0
28 5 69 0
5 69 -70 0
-5 -69 -70 0
5 -69 70 0
-5 69 70 0
71 1 0
71 -9 0
-1 9 -71 0
70 71 -72 0
-70 -71 -72 0
70 -71 72 0
-70 71 72 0
56 38 -73 0
-56 -38 -73 0
56 -38 73 0
-56 38 73 0
74 -48 0
74 27 0
48 -27 -74 0
-73 -74 -75 0
73 74 -75 0
-73 74 75 0
73 -74 75 0
72 75 -76 0
-72 -75 -76 0
72 -75 76 0
-72 75 76 0
-18 38 -77 0
18 -38 -77 0
-18 -38 77 0
18 38 77 0
-78 -76 0
-78 -77 0
76 77 78 0
-79 -68 0
-79 78 0
68 -78 79 0
-20 40 -80 0
20 -40 -80 0
-20 -40 80 0
20 40 80 0
81 19 0
81 13 0
-19 -13 -81 0
82 -27 0
82 -81 0
27 81 -82 0
-82 -1 -83 0
82 1 -83 0
-82 1 83 0
82 -1 83 0
-84 1 0
-84 19 0
-1 -19 84 0
85 8 0
85 -84 0
-8 84 -85 0
-40 -73 -86 0
40 73 -86 0
-40 73 86 0
40 -73 86 0
-53 86 -87 0
53 -86 -87 0
-53 -86 87 0
53 86 87 0
-88 -69 0
-88 -49 0
69 49 88 0
-87 88 -89 0
87 -88 -89 0
-87 -88 89 0
87 88 89 0
90 -85 0
90 89 0
85 -89 -90 0
91 -83 0
91 90 0
83 -90 -91 0
92 80 0
92 91 0
-80 -91 -92 0
79 -92 -93 0
-79 92 -93 0
79 92 93 0
-79 -92 93 0
-3 49 -94 0
3 -49 -94 0
-3 -49 94 0
3 49 94 0
-19 73 -95 0
19 -73 -95 0
-19 -73 95 0
19 73 95 0
-96 -94 0
-96 95 0
94 -95 96 0
97 93 0
97 96 0
-93 -96 -97 0
-66 -97 -98 0
66 97 -98 0
-66 97 98 0
66 -97 98 0
99 -40 0
99 19 0
40 -19 -99 0
-100 3 0
-100 32 0
-3 -32 100 0
39 -69 -101 0
-39 69 -101 0
39 69 101 0
-39 -69 101 0
-102 100 0
-102 101 0
-100 -101 102 0
103 -99 0
103 -102 0
99 102 -103 0
-104 9 0
-104 -100 0
-9 100 104 0
103 -104 -105 0
-103 104 -105 0
103 104 105 0
-103 -104 105 0
106 -102 0
106 48 0
102 -48 -106 0
-107 50 0
-107 106 0
-50 -106 107 0
-108 -48 0
-108 -101 0
48 101 108 0
109 74 0
109 -39 0
-74 39 -109 0
-110 -108 0
-110 109 0
108 -109 110 0
112 111 0
112 -56 0
-111 56 -112 0
113 -110 0
113 112 0
110 -112 -113 0
114 107 0
114 113 0
-107 -113 -114 0
-32 75 -115 0
32 -75 -115 0
-32 -75 115 0
32 75 115 0
116 -114 0
116 -115 0
114 115 -116 0
117 105 0
117 -116 0
-105 116 -117 0
118 -98 0
118 117 0
98 -117 -118 0
-69 -77 38 88 0
-75 -27 -86 34 0
16 -7 -66 58 0
104 107 -33 -35 85 80 0
-16 57 63 -107 0
52 -118 51 -37 0
-19 58 -79 0
39 -111 102 -116 -6 0
-59 -34 -42 109 -1 0
-90 12 -76 -65 0
-7 96 24 0
39 102 0
18 -72 -93 -78 0
2 40 107 0
-25 89 -42 -72 68 46 0
-9 8 -5 0
-29 116 -58 69 0
-111 -76 -43 -83 0
66 98 -75 0
34 57 -17 62 -9 -36 0
-72 32 0
13 36 0
-82 25 -118 95 0
-36 10 -87 -89 27 0
-25 1 96 -77 0
-50 83 103 59 -116 0
68 -29 0
-103 -49 -99 59 11 91 0
26 117 -16 0
-91 -26 65 52 0
-95 -18 -61 -97 0
-16 61 -48 -84 0
-68 -103 0
16 -58 109 37 0
65 11 -57 113 3 -29 0
99 -109 -60 17 39 45 0
-32 -37 1 75 97 108 0
-8 -47 -54 0
21 111 62 0
-68 80 -112 -45 -30 0
95 -98 0
-83 -44 -110 -103 24 87 0
-118 1 -95 24 0
15 -81 73 -16 -101 0
29 -74 0
65 -11 9 54 -78 -103 0
-80 -115 87 27 55 47 0
23 -34 0
43 107 0
-92 -77 44 54 0
-43 -76 -49 24 0
118 0
